5 5
0 37 3 79 2 77 1 77 4 32
3 47 1 72 0 43 4 82 2 36
3 26 2 10 1 31 4 97 0 29
1 5 4 77 3 1 2 87 0 3
1 67 0 71 4 35 2 15 3 67
-1
0 2 5
0 2 5
0 1 3 4 5
0 2 3 4 5
0 2 3 4 5
-2
174 464
190 406
38 80 164 248
83 101 194 219
156 268 236 405

356 3
0 21 19 7 14
15 20 12 6 3
11 18 2 23 9
10 5 17 1 24
16 13 22 8 4
